(declare-const term_to_project_onto0 Real)
(declare-const term_to_project_onto Real)
(assert (exists ((|y'?1| Int) (|x'?2| Int) (y?3 Int) (x?4 Int))
         (and (<= (+ (- y?3) 1) 0) (= (+ |y'?1| (- y?3) 2) 0)
                (= (+ (- x?4) |x'?2| 2) 0)
                (= term_to_project_onto0 (+ |x'?2| (- x?4)))
                (= term_to_project_onto (+ |y'?1| (- y?3))))))
(check-sat)
